# LAMMPS - Thermalization 
units           real
atom_style      full
boundary        p p p

bond_style 		harmonic
angle_style 	hybrid harmonic cosine/squared
dihedral_style 	harmonic
improper_style  harmonic

pair_style  	lj/cut/coul/long 10 # 10 Å for both electrostatic and non-covalent interactions
kspace_style 	pppm 1e-5 # long-range solver for the Coulomb interactions: particle-particle-particle mesh

special_bonds   dreiding
pair_modify     tail yes mix arithmetic
dielectric      1.0 