boundary p p f
units real
atom_style full

bond_style harmonic
angle_style cosine/squared
dihedral_style harmonic

pair_style lj/cut/coul/long 10 # 10 Å for both electrostatic and non-covalent interactions
kspace_style pppm 1e-5 # long-range solver for the Coulomb interactions: particle-particle-particle mesh

special_bonds   dreiding
pair_modify     tail yes mix arithmetic
dielectric      1.0 

read_data structure_ionomer_.lammps

